c E(1,1) B(1) R(1) E(0,1) B(0) E(1,0) R(0) E(2,1) R(2) E(1,2) B(2) E(0,0) E(0,2) E(2,0) E(2,2)
c 1 2 3 4 5 6 7 8 9 10 11 12 13 14 15
p cnf 15 21
-12 0
-1 0
-15 0
5 7 0
2 3 0
11 9 0
4 -6 0
13 -14 0
6 -4 0
10 -8 0
14 -13 0
8 -10 0
-5 -7 0
-2 -3 0
-11 -9 0
5 2 -6 0
5 11 -14 0
2 11 -8 0
7 3 -6 0
7 9 -14 0
3 9 -8 0
